NAME : kroC100
TYPE : OP
DIMENSION : 100
COST_LIMIT : 10375
ROUTE_NODES : 51
ROUTE_SCORE : 2931
ROUTE_COST : 10359
NODE_SEQUENCE_SECTION
1
85
15
13
79
64
20
42
55
67
47
6
54
75
22
8
17
25
90
98
88
28
39
38
71
72
83
62
50
95
94
91
23
21
89
59
73
3
69
74
57
100
33
81
45
10
99
93
12
40
53
-1
DEPOT_SECTION
1
-1
EOF
